nK = 3346;
nT = 8;
nI = 21;
L = 35;
TT = 679;
np = 1;
nc = 3;
b = [42, 44, 47, 49, 66, 57, 36, 49, 48, 48, 70, 43, 33, 20, 32, 66, 41, 27, 25, 68, 33];
d = [141, 94, 121, 111, 144, 89, 136, 112, 80, 80, 135, 114, 137, 112, 145, 117, 96, 79, 68, 109, 74];
m = [2.1, 1.1, 1, 1.5, 1.7, 2.5, 2.3, 1.4, 1.6, 1.2, 1.9, 1.6, 1, 1.7, 1.4, 1.2, 2.2, 2, 2.3, 1.2, 2.4];
pt = [0.3, 0.33, 0.28, 0.2, 0.3, 0.34, 0.28, 0.26];
st = [12.9, 13.2, 11.48, 9.8, 12.9, 13.94, 14, 14.82];
arc = {<1, 0, 1, 1, 0, 0, 0, [1, 1, 1, 1, 1, 1, 1, 1]>, <2, 1, 2, 1, 0, 0, 0, [1, 1, 1, 1, 1, 1, 1, 1]>, <3, 2, 3, 1, 0, 0, 0, [1, 1, 1, 1, 1, 1, 1, 1]>, <4, 3, 4, 1, 0, 0, 0, [1, 1, 1, 1, 1, 1, 1, 1]>, <5, 4, 5, 1, 0, 0, 0, [1, 1, 1, 1, 1, 1, 1, 1]>, <6, 5, 6, 1, 0, 0, 0, [1, 1, 1, 1, 1, 1, 1, 1]>, <7, 6, 7, 1, 0, 0, 0, [1, 1, 1, 1, 1, 1, 1, 1]>, <8, 7, 8, 1, 0, 0, 0, [1, 1, 1, 1, 1, 1, 1, 1]>, <9, 8, 9, 1, 0, 0, 0, [1, 1, 1, 1, 1, 1, 1, 1]>, <10, 9, 10, 1, 0, 0, 0, [1, 1, 1, 1, 1, 1, 1, 1]>, <11, 10, 11, 1, 0, 0, 0, [1, 1, 1, 1, 1, 1, 1, 1]>, <12, 11, 12, 1, 0, 0, 0, [1, 1, 1, 1, 1, 1, 1, 1]>, <13, 12, 13, 1, 0, 0, 0, [1, 1, 1, 1, 1, 1, 1, 1]>, <14, 13, 14, 1, 0, 0, 0, [1, 1, 1, 1, 1, 1, 1, 1]>, <15, 14, 15, 1, 0, 0, 0, [1, 1, 1, 1, 1, 1, 1, 1]>, <16, 15, 16, 1, 0, 0, 0, [1, 1, 1, 1, 1, 1, 1, 1]>, <17, 16, 17, 1, 0, 0, 0, [1, 1, 1, 1, 1, 1, 1, 1]>, <18, 17, 18, 1, 0, 0, 0, [1, 1, 1, 1, 1, 1, 1, 1]>, <19, 18, 19, 1, 0, 0, 0, [1, 1, 1, 1, 1, 1, 1, 1]>, <20, 19, 20, 1, 0, 0, 0, [1, 1, 1, 1, 1, 1, 1, 1]>, <21, 20, 21, 1, 0, 0, 0, [1, 1, 1, 1, 1, 1, 1, 1]>, <22, 21, 22, 1, 0, 0, 0, [1, 1, 1, 1, 1, 1, 1, 1]>, <23, 22, 23, 1, 0, 0, 0, [1, 1, 1, 1, 1, 1, 1, 1]>, <24, 23, 24, 1, 0, 0, 0, [1, 1, 1, 1, 1, 1, 1, 1]>, <25, 24, 25, 1, 0, 0, 0, [1, 1, 1, 1, 1, 1, 1, 1]>, <26, 25, 26, 1, 0, 0, 0, [1, 1, 1, 1, 1, 1, 1, 1]>, <27, 26, 27, 1, 0, 0, 0, [1, 1, 1, 1, 1, 1, 1, 1]>, <28, 27, 28, 1, 0, 0, 0, [1, 1, 1, 1, 1, 1, 1, 1]>, <29, 28, 29, 1, 0, 0, 0, [1, 1, 1, 1, 1, 1, 1, 1]>, <30, 29, 30, 1, 0, 0, 0, [1, 1, 1, 1, 1, 1, 1, 1]>, <31, 30, 31, 1, 0, 0, 0, [1, 1, 1, 1, 1, 1, 1, 1]>, <32, 31, 32, 1, 0, 0, 0, [1, 1, 1, 1, 1, 1, 1, 1]>, <33, 32, 33, 1, 0, 0, 0, [1, 1, 1, 1, 1, 1, 1, 1]>, <34, 33, 34, 1, 0, 0, 0, [1, 1, 1, 1, 1, 1, 1, 1]>, <35, 34, 35, 1, 0, 0, 0, [1, 1, 1, 1, 1, 1, 1, 1]>, <36, 0, 17, 17, 1, 0, 0, [0, 0, 0, 1, 1, 1, 1, 0]>, <37, 1, 18, 17, 1, 0, 0, [0, 0, 0, 1, 1, 1, 1, 0]>, <38, 2, 19, 17, 1, 0, 0, [0, 0, 0, 1, 1, 1, 1, 0]>, <39, 3, 20, 17, 1, 0, 0, [0, 0, 0, 1, 1, 1, 1, 0]>, <40, 4, 21, 17, 1, 0, 0, [0, 0, 0, 1, 1, 1, 1, 0]>, <41, 5, 22, 17, 1, 0, 0, [0, 0, 0, 1, 1, 1, 1, 0]>, <42, 6, 23, 17, 1, 0, 0, [0, 0, 0, 1, 1, 1, 1, 0]>, <43, 9, 26, 17, 1, 0, 0, [0, 0, 0, 1, 1, 1, 1, 0]>, <44, 10, 27, 17, 1, 0, 0, [0, 0, 0, 1, 1, 1, 1, 0]>, <45, 11, 28, 17, 1, 0, 0, [0, 0, 0, 1, 1, 1, 1, 0]>, <46, 12, 29, 17, 1, 0, 0, [0, 0, 0, 1, 1, 1, 1, 0]>, <47, 13, 30, 17, 1, 0, 0, [0, 0, 0, 1, 1, 1, 1, 0]>, <48, 14, 31, 17, 1, 0, 0, [0, 0, 0, 1, 1, 1, 1, 0]>, <49, 15, 32, 17, 1, 0, 0, [0, 0, 0, 1, 1, 1, 1, 0]>, <50, 16, 33, 17, 1, 0, 0, [0, 0, 0, 1, 1, 1, 1, 0]>, <51, 17, 34, 17, 1, 0, 0, [0, 0, 0, 1, 1, 1, 1, 0]>, <52, 18, 35, 17, 1, 0, 0, [0, 0, 0, 1, 1, 1, 1, 0]>, <53, 0, 20, 20, 2, 0, 0, [1, 1, 1, 0, 0, 0, 0, 1]>, <54, 1, 21, 20, 2, 0, 0, [1, 1, 1, 0, 0, 0, 0, 1]>, <55, 2, 22, 20, 2, 0, 0, [1, 1, 1, 0, 0, 0, 0, 1]>, <56, 3, 23, 20, 2, 0, 0, [1, 1, 1, 0, 0, 0, 0, 1]>, <57, 4, 24, 20, 2, 0, 0, [1, 1, 1, 0, 0, 0, 0, 1]>, <58, 5, 25, 20, 2, 0, 0, [1, 1, 1, 0, 0, 0, 0, 1]>, <59, 6, 26, 20, 2, 0, 0, [1, 1, 1, 0, 0, 0, 0, 1]>, <60, 7, 27, 20, 2, 0, 0, [1, 1, 1, 0, 0, 0, 0, 1]>, <61, 8, 28, 20, 2, 0, 0, [1, 1, 1, 0, 0, 0, 0, 1]>, <62, 9, 29, 20, 2, 0, 0, [1, 1, 1, 0, 0, 0, 0, 1]>, <63, 10, 30, 20, 2, 0, 0, [1, 1, 1, 0, 0, 0, 0, 1]>, <64, 11, 31, 20, 2, 0, 0, [1, 1, 1, 0, 0, 0, 0, 1]>, <65, 12, 32, 20, 2, 0, 0, [1, 1, 1, 0, 0, 0, 0, 1]>, <66, 13, 33, 20, 2, 0, 0, [1, 1, 1, 0, 0, 0, 0, 1]>, <67, 14, 34, 20, 2, 0, 0, [1, 1, 1, 0, 0, 0, 0, 1]>, <68, 15, 35, 20, 2, 0, 0, [1, 1, 1, 0, 0, 0, 0, 1]>, <69, 0, 22, 22, 3, 0, 0, [1, 1, 1, 1, 0, 0, 0, 0]>, <70, 1, 23, 22, 3, 0, 0, [1, 1, 1, 1, 0, 0, 0, 0]>, <71, 2, 24, 22, 3, 0, 0, [1, 1, 1, 1, 0, 0, 0, 0]>, <72, 3, 25, 22, 3, 0, 0, [1, 1, 1, 1, 0, 0, 0, 0]>, <73, 4, 26, 22, 3, 0, 0, [1, 1, 1, 1, 0, 0, 0, 0]>, <74, 5, 27, 22, 3, 0, 0, [1, 1, 1, 1, 0, 0, 0, 0]>, <75, 6, 28, 22, 3, 0, 0, [1, 1, 1, 1, 0, 0, 0, 0]>, <76, 7, 29, 22, 3, 0, 0, [1, 1, 1, 1, 0, 0, 0, 0]>, <77, 8, 30, 22, 3, 0, 0, [1, 1, 1, 1, 0, 0, 0, 0]>, <78, 9, 31, 22, 3, 0, 0, [1, 1, 1, 1, 0, 0, 0, 0]>, <79, 10, 32, 22, 3, 0, 0, [1, 1, 1, 1, 0, 0, 0, 0]>, <80, 11, 33, 22, 3, 0, 0, [1, 1, 1, 1, 0, 0, 0, 0]>, <81, 12, 34, 22, 3, 0, 0, [1, 1, 1, 1, 0, 0, 0, 0]>, <82, 13, 35, 22, 3, 0, 0, [1, 1, 1, 1, 0, 0, 0, 0]>, <83, 0, 17, 17, 4, 0, 1, [0, 1, 1, 1, 1, 0, 0, 0]>, <84, 1, 18, 17, 4, 0, 1, [0, 1, 1, 1, 1, 0, 0, 0]>, <85, 2, 19, 17, 4, 0, 1, [0, 1, 1, 1, 1, 0, 0, 0]>, <86, 3, 20, 17, 4, 0, 1, [0, 1, 1, 1, 1, 0, 0, 0]>, <87, 4, 21, 17, 4, 0, 1, [0, 1, 1, 1, 1, 0, 0, 0]>, <88, 5, 22, 17, 4, 0, 1, [0, 1, 1, 1, 1, 0, 0, 0]>, <89, 6, 23, 17, 4, 0, 1, [0, 1, 1, 1, 1, 0, 0, 0]>, <90, 9, 26, 17, 4, 0, 1, [0, 1, 1, 1, 1, 0, 0, 0]>, <91, 10, 27, 17, 4, 0, 1, [0, 1, 1, 1, 1, 0, 0, 0]>, <92, 11, 28, 17, 4, 0, 1, [0, 1, 1, 1, 1, 0, 0, 0]>, <93, 12, 29, 17, 4, 0, 1, [0, 1, 1, 1, 1, 0, 0, 0]>, <94, 13, 30, 17, 4, 0, 1, [0, 1, 1, 1, 1, 0, 0, 0]>, <95, 14, 31, 17, 4, 0, 1, [0, 1, 1, 1, 1, 0, 0, 0]>, <96, 15, 32, 17, 4, 0, 1, [0, 1, 1, 1, 1, 0, 0, 0]>, <97, 16, 33, 17, 4, 0, 1, [0, 1, 1, 1, 1, 0, 0, 0]>, <98, 17, 34, 17, 4, 0, 1, [0, 1, 1, 1, 1, 0, 0, 0]>, <99, 18, 35, 17, 4, 0, 1, [0, 1, 1, 1, 1, 0, 0, 0]>, <100, 0, 18, 18, 5, 0, 0, [1, 1, 1, 1, 0, 0, 0, 0]>, <101, 1, 19, 18, 5, 0, 0, [1, 1, 1, 1, 0, 0, 0, 0]>, <102, 2, 20, 18, 5, 0, 0, [1, 1, 1, 1, 0, 0, 0, 0]>, <103, 3, 21, 18, 5, 0, 0, [1, 1, 1, 1, 0, 0, 0, 0]>, <104, 4, 22, 18, 5, 0, 0, [1, 1, 1, 1, 0, 0, 0, 0]>, <105, 5, 23, 18, 5, 0, 0, [1, 1, 1, 1, 0, 0, 0, 0]>, <106, 6, 24, 18, 5, 0, 0, [1, 1, 1, 1, 0, 0, 0, 0]>, <107, 8, 26, 18, 5, 0, 0, [1, 1, 1, 1, 0, 0, 0, 0]>, <108, 9, 27, 18, 5, 0, 0, [1, 1, 1, 1, 0, 0, 0, 0]>, <109, 10, 28, 18, 5, 0, 0, [1, 1, 1, 1, 0, 0, 0, 0]>, <110, 11, 29, 18, 5, 0, 0, [1, 1, 1, 1, 0, 0, 0, 0]>, <111, 12, 30, 18, 5, 0, 0, [1, 1, 1, 1, 0, 0, 0, 0]>, <112, 13, 31, 18, 5, 0, 0, [1, 1, 1, 1, 0, 0, 0, 0]>, <113, 14, 32, 18, 5, 0, 0, [1, 1, 1, 1, 0, 0, 0, 0]>, <114, 15, 33, 18, 5, 0, 0, [1, 1, 1, 1, 0, 0, 0, 0]>, <115, 16, 34, 18, 5, 0, 0, [1, 1, 1, 1, 0, 0, 0, 0]>, <116, 17, 35, 18, 5, 0, 0, [1, 1, 1, 1, 0, 0, 0, 0]>, <117, 1, 17, 16, 6, 0, 1, [1, 1, 1, 1, 0, 0, 0, 0]>, <118, 2, 18, 16, 6, 0, 1, [1, 1, 1, 1, 0, 0, 0, 0]>, <119, 3, 19, 16, 6, 0, 1, [1, 1, 1, 1, 0, 0, 0, 0]>, <120, 4, 20, 16, 6, 0, 1, [1, 1, 1, 1, 0, 0, 0, 0]>, <121, 5, 21, 16, 6, 0, 1, [1, 1, 1, 1, 0, 0, 0, 0]>, <122, 6, 22, 16, 6, 0, 1, [1, 1, 1, 1, 0, 0, 0, 0]>, <123, 10, 26, 16, 6, 0, 1, [1, 1, 1, 1, 0, 0, 0, 0]>, <124, 11, 27, 16, 6, 0, 1, [1, 1, 1, 1, 0, 0, 0, 0]>, <125, 12, 28, 16, 6, 0, 1, [1, 1, 1, 1, 0, 0, 0, 0]>, <126, 13, 29, 16, 6, 0, 1, [1, 1, 1, 1, 0, 0, 0, 0]>, <127, 14, 30, 16, 6, 0, 1, [1, 1, 1, 1, 0, 0, 0, 0]>, <128, 15, 31, 16, 6, 0, 1, [1, 1, 1, 1, 0, 0, 0, 0]>, <129, 16, 32, 16, 6, 0, 1, [1, 1, 1, 1, 0, 0, 0, 0]>, <130, 17, 33, 16, 6, 0, 1, [1, 1, 1, 1, 0, 0, 0, 0]>, <131, 18, 34, 16, 6, 0, 1, [1, 1, 1, 1, 0, 0, 0, 0]>, <132, 19, 35, 16, 6, 0, 1, [1, 1, 1, 1, 0, 0, 0, 0]>, <133, 0, 21, 21, 7, 0, 1, [0, 0, 0, 1, 1, 1, 1, 0]>, <134, 1, 22, 21, 7, 0, 1, [0, 0, 0, 1, 1, 1, 1, 0]>, <135, 2, 23, 21, 7, 0, 1, [0, 0, 0, 1, 1, 1, 1, 0]>, <136, 3, 24, 21, 7, 0, 1, [0, 0, 0, 1, 1, 1, 1, 0]>, <137, 4, 25, 21, 7, 0, 1, [0, 0, 0, 1, 1, 1, 1, 0]>, <138, 5, 26, 21, 7, 0, 1, [0, 0, 0, 1, 1, 1, 1, 0]>, <139, 6, 27, 21, 7, 0, 1, [0, 0, 0, 1, 1, 1, 1, 0]>, <140, 7, 28, 21, 7, 0, 1, [0, 0, 0, 1, 1, 1, 1, 0]>, <141, 8, 29, 21, 7, 0, 1, [0, 0, 0, 1, 1, 1, 1, 0]>, <142, 9, 30, 21, 7, 0, 1, [0, 0, 0, 1, 1, 1, 1, 0]>, <143, 10, 31, 21, 7, 0, 1, [0, 0, 0, 1, 1, 1, 1, 0]>, <144, 11, 32, 21, 7, 0, 1, [0, 0, 0, 1, 1, 1, 1, 0]>, <145, 12, 33, 21, 7, 0, 1, [0, 0, 0, 1, 1, 1, 1, 0]>, <146, 13, 34, 21, 7, 0, 1, [0, 0, 0, 1, 1, 1, 1, 0]>, <147, 14, 35, 21, 7, 0, 1, [0, 0, 0, 1, 1, 1, 1, 0]>, <148, 0, 17, 17, 8, 0, 1, [0, 1, 1, 1, 1, 0, 0, 0]>, <149, 1, 18, 17, 8, 0, 1, [0, 1, 1, 1, 1, 0, 0, 0]>, <150, 2, 19, 17, 8, 0, 1, [0, 1, 1, 1, 1, 0, 0, 0]>, <151, 3, 20, 17, 8, 0, 1, [0, 1, 1, 1, 1, 0, 0, 0]>, <152, 4, 21, 17, 8, 0, 1, [0, 1, 1, 1, 1, 0, 0, 0]>, <153, 5, 22, 17, 8, 0, 1, [0, 1, 1, 1, 1, 0, 0, 0]>, <154, 6, 23, 17, 8, 0, 1, [0, 1, 1, 1, 1, 0, 0, 0]>, <155, 9, 26, 17, 8, 0, 1, [0, 1, 1, 1, 1, 0, 0, 0]>, <156, 10, 27, 17, 8, 0, 1, [0, 1, 1, 1, 1, 0, 0, 0]>, <157, 11, 28, 17, 8, 0, 1, [0, 1, 1, 1, 1, 0, 0, 0]>, <158, 12, 29, 17, 8, 0, 1, [0, 1, 1, 1, 1, 0, 0, 0]>, <159, 13, 30, 17, 8, 0, 1, [0, 1, 1, 1, 1, 0, 0, 0]>, <160, 14, 31, 17, 8, 0, 1, [0, 1, 1, 1, 1, 0, 0, 0]>, <161, 15, 32, 17, 8, 0, 1, [0, 1, 1, 1, 1, 0, 0, 0]>, <162, 16, 33, 17, 8, 0, 1, [0, 1, 1, 1, 1, 0, 0, 0]>, <163, 17, 34, 17, 8, 0, 1, [0, 1, 1, 1, 1, 0, 0, 0]>, <164, 18, 35, 17, 8, 0, 1, [0, 1, 1, 1, 1, 0, 0, 0]>, <165, 0, 18, 18, 9, 0, 0, [1, 1, 1, 1, 0, 0, 0, 0]>, <166, 1, 19, 18, 9, 0, 0, [1, 1, 1, 1, 0, 0, 0, 0]>, <167, 2, 20, 18, 9, 0, 0, [1, 1, 1, 1, 0, 0, 0, 0]>, <168, 3, 21, 18, 9, 0, 0, [1, 1, 1, 1, 0, 0, 0, 0]>, <169, 4, 22, 18, 9, 0, 0, [1, 1, 1, 1, 0, 0, 0, 0]>, <170, 5, 23, 18, 9, 0, 0, [1, 1, 1, 1, 0, 0, 0, 0]>, <171, 6, 24, 18, 9, 0, 0, [1, 1, 1, 1, 0, 0, 0, 0]>, <172, 8, 26, 18, 9, 0, 0, [1, 1, 1, 1, 0, 0, 0, 0]>, <173, 9, 27, 18, 9, 0, 0, [1, 1, 1, 1, 0, 0, 0, 0]>, <174, 10, 28, 18, 9, 0, 0, [1, 1, 1, 1, 0, 0, 0, 0]>, <175, 11, 29, 18, 9, 0, 0, [1, 1, 1, 1, 0, 0, 0, 0]>, <176, 12, 30, 18, 9, 0, 0, [1, 1, 1, 1, 0, 0, 0, 0]>, <177, 13, 31, 18, 9, 0, 0, [1, 1, 1, 1, 0, 0, 0, 0]>, <178, 14, 32, 18, 9, 0, 0, [1, 1, 1, 1, 0, 0, 0, 0]>, <179, 15, 33, 18, 9, 0, 0, [1, 1, 1, 1, 0, 0, 0, 0]>, <180, 16, 34, 18, 9, 0, 0, [1, 1, 1, 1, 0, 0, 0, 0]>, <181, 17, 35, 18, 9, 0, 0, [1, 1, 1, 1, 0, 0, 0, 0]>, <182, 0, 20, 20, 10, 0, 0, [1, 1, 1, 0, 0, 0, 0, 1]>, <183, 1, 21, 20, 10, 0, 0, [1, 1, 1, 0, 0, 0, 0, 1]>, <184, 2, 22, 20, 10, 0, 0, [1, 1, 1, 0, 0, 0, 0, 1]>, <185, 3, 23, 20, 10, 0, 0, [1, 1, 1, 0, 0, 0, 0, 1]>, <186, 4, 24, 20, 10, 0, 0, [1, 1, 1, 0, 0, 0, 0, 1]>, <187, 5, 25, 20, 10, 0, 0, [1, 1, 1, 0, 0, 0, 0, 1]>, <188, 6, 26, 20, 10, 0, 0, [1, 1, 1, 0, 0, 0, 0, 1]>, <189, 7, 27, 20, 10, 0, 0, [1, 1, 1, 0, 0, 0, 0, 1]>, <190, 8, 28, 20, 10, 0, 0, [1, 1, 1, 0, 0, 0, 0, 1]>, <191, 9, 29, 20, 10, 0, 0, [1, 1, 1, 0, 0, 0, 0, 1]>, <192, 10, 30, 20, 10, 0, 0, [1, 1, 1, 0, 0, 0, 0, 1]>, <193, 11, 31, 20, 10, 0, 0, [1, 1, 1, 0, 0, 0, 0, 1]>, <194, 12, 32, 20, 10, 0, 0, [1, 1, 1, 0, 0, 0, 0, 1]>, <195, 13, 33, 20, 10, 0, 0, [1, 1, 1, 0, 0, 0, 0, 1]>, <196, 14, 34, 20, 10, 0, 0, [1, 1, 1, 0, 0, 0, 0, 1]>, <197, 15, 35, 20, 10, 0, 0, [1, 1, 1, 0, 0, 0, 0, 1]>, <198, 0, 19, 19, 11, 1, 0, [1, 1, 1, 1, 0, 0, 0, 0]>, <199, 1, 20, 19, 11, 1, 0, [1, 1, 1, 1, 0, 0, 0, 0]>, <200, 2, 21, 19, 11, 1, 0, [1, 1, 1, 1, 0, 0, 0, 0]>, <201, 3, 22, 19, 11, 1, 0, [1, 1, 1, 1, 0, 0, 0, 0]>, <202, 4, 23, 19, 11, 1, 0, [1, 1, 1, 1, 0, 0, 0, 0]>, <203, 5, 24, 19, 11, 1, 0, [1, 1, 1, 1, 0, 0, 0, 0]>, <204, 6, 25, 19, 11, 1, 0, [1, 1, 1, 1, 0, 0, 0, 0]>, <205, 7, 26, 19, 11, 1, 0, [1, 1, 1, 1, 0, 0, 0, 0]>, <206, 8, 27, 19, 11, 1, 0, [1, 1, 1, 1, 0, 0, 0, 0]>, <207, 9, 28, 19, 11, 1, 0, [1, 1, 1, 1, 0, 0, 0, 0]>, <208, 10, 29, 19, 11, 1, 0, [1, 1, 1, 1, 0, 0, 0, 0]>, <209, 11, 30, 19, 11, 1, 0, [1, 1, 1, 1, 0, 0, 0, 0]>, <210, 12, 31, 19, 11, 1, 0, [1, 1, 1, 1, 0, 0, 0, 0]>, <211, 13, 32, 19, 11, 1, 0, [1, 1, 1, 1, 0, 0, 0, 0]>, <212, 14, 33, 19, 11, 1, 0, [1, 1, 1, 1, 0, 0, 0, 0]>, <213, 15, 34, 19, 11, 1, 0, [1, 1, 1, 1, 0, 0, 0, 0]>, <214, 16, 35, 19, 11, 1, 0, [1, 1, 1, 1, 0, 0, 0, 0]>, <215, 0, 22, 22, 12, 0, 1, [0, 0, 0, 1, 1, 1, 1, 0]>, <216, 1, 23, 22, 12, 0, 1, [0, 0, 0, 1, 1, 1, 1, 0]>, <217, 2, 24, 22, 12, 0, 1, [0, 0, 0, 1, 1, 1, 1, 0]>, <218, 3, 25, 22, 12, 0, 1, [0, 0, 0, 1, 1, 1, 1, 0]>, <219, 4, 26, 22, 12, 0, 1, [0, 0, 0, 1, 1, 1, 1, 0]>, <220, 5, 27, 22, 12, 0, 1, [0, 0, 0, 1, 1, 1, 1, 0]>, <221, 6, 28, 22, 12, 0, 1, [0, 0, 0, 1, 1, 1, 1, 0]>, <222, 7, 29, 22, 12, 0, 1, [0, 0, 0, 1, 1, 1, 1, 0]>, <223, 8, 30, 22, 12, 0, 1, [0, 0, 0, 1, 1, 1, 1, 0]>, <224, 9, 31, 22, 12, 0, 1, [0, 0, 0, 1, 1, 1, 1, 0]>, <225, 10, 32, 22, 12, 0, 1, [0, 0, 0, 1, 1, 1, 1, 0]>, <226, 11, 33, 22, 12, 0, 1, [0, 0, 0, 1, 1, 1, 1, 0]>, <227, 12, 34, 22, 12, 0, 1, [0, 0, 0, 1, 1, 1, 1, 0]>, <228, 13, 35, 22, 12, 0, 1, [0, 0, 0, 1, 1, 1, 1, 0]>, <229, 0, 20, 20, 13, 1, 0, [0, 0, 1, 1, 1, 1, 0, 0]>, <230, 1, 21, 20, 13, 1, 0, [0, 0, 1, 1, 1, 1, 0, 0]>, <231, 2, 22, 20, 13, 1, 0, [0, 0, 1, 1, 1, 1, 0, 0]>, <232, 3, 23, 20, 13, 1, 0, [0, 0, 1, 1, 1, 1, 0, 0]>, <233, 4, 24, 20, 13, 1, 0, [0, 0, 1, 1, 1, 1, 0, 0]>, <234, 5, 25, 20, 13, 1, 0, [0, 0, 1, 1, 1, 1, 0, 0]>, <235, 6, 26, 20, 13, 1, 0, [0, 0, 1, 1, 1, 1, 0, 0]>, <236, 7, 27, 20, 13, 1, 0, [0, 0, 1, 1, 1, 1, 0, 0]>, <237, 8, 28, 20, 13, 1, 0, [0, 0, 1, 1, 1, 1, 0, 0]>, <238, 9, 29, 20, 13, 1, 0, [0, 0, 1, 1, 1, 1, 0, 0]>, <239, 10, 30, 20, 13, 1, 0, [0, 0, 1, 1, 1, 1, 0, 0]>, <240, 11, 31, 20, 13, 1, 0, [0, 0, 1, 1, 1, 1, 0, 0]>, <241, 12, 32, 20, 13, 1, 0, [0, 0, 1, 1, 1, 1, 0, 0]>, <242, 13, 33, 20, 13, 1, 0, [0, 0, 1, 1, 1, 1, 0, 0]>, <243, 14, 34, 20, 13, 1, 0, [0, 0, 1, 1, 1, 1, 0, 0]>, <244, 15, 35, 20, 13, 1, 0, [0, 0, 1, 1, 1, 1, 0, 0]>, <245, 0, 21, 21, 14, 0, 0, [0, 1, 1, 1, 1, 0, 0, 0]>, <246, 1, 22, 21, 14, 0, 0, [0, 1, 1, 1, 1, 0, 0, 0]>, <247, 2, 23, 21, 14, 0, 0, [0, 1, 1, 1, 1, 0, 0, 0]>, <248, 3, 24, 21, 14, 0, 0, [0, 1, 1, 1, 1, 0, 0, 0]>, <249, 4, 25, 21, 14, 0, 0, [0, 1, 1, 1, 1, 0, 0, 0]>, <250, 5, 26, 21, 14, 0, 0, [0, 1, 1, 1, 1, 0, 0, 0]>, <251, 6, 27, 21, 14, 0, 0, [0, 1, 1, 1, 1, 0, 0, 0]>, <252, 7, 28, 21, 14, 0, 0, [0, 1, 1, 1, 1, 0, 0, 0]>, <253, 8, 29, 21, 14, 0, 0, [0, 1, 1, 1, 1, 0, 0, 0]>, <254, 9, 30, 21, 14, 0, 0, [0, 1, 1, 1, 1, 0, 0, 0]>, <255, 10, 31, 21, 14, 0, 0, [0, 1, 1, 1, 1, 0, 0, 0]>, <256, 11, 32, 21, 14, 0, 0, [0, 1, 1, 1, 1, 0, 0, 0]>, <257, 12, 33, 21, 14, 0, 0, [0, 1, 1, 1, 1, 0, 0, 0]>, <258, 13, 34, 21, 14, 0, 0, [0, 1, 1, 1, 1, 0, 0, 0]>, <259, 14, 35, 21, 14, 0, 0, [0, 1, 1, 1, 1, 0, 0, 0]>, <260, 0, 18, 18, 15, 1, 0, [0, 1, 1, 1, 1, 0, 0, 0]>, <261, 1, 19, 18, 15, 1, 0, [0, 1, 1, 1, 1, 0, 0, 0]>, <262, 2, 20, 18, 15, 1, 0, [0, 1, 1, 1, 1, 0, 0, 0]>, <263, 3, 21, 18, 15, 1, 0, [0, 1, 1, 1, 1, 0, 0, 0]>, <264, 4, 22, 18, 15, 1, 0, [0, 1, 1, 1, 1, 0, 0, 0]>, <265, 5, 23, 18, 15, 1, 0, [0, 1, 1, 1, 1, 0, 0, 0]>, <266, 6, 24, 18, 15, 1, 0, [0, 1, 1, 1, 1, 0, 0, 0]>, <267, 8, 26, 18, 15, 1, 0, [0, 1, 1, 1, 1, 0, 0, 0]>, <268, 9, 27, 18, 15, 1, 0, [0, 1, 1, 1, 1, 0, 0, 0]>, <269, 10, 28, 18, 15, 1, 0, [0, 1, 1, 1, 1, 0, 0, 0]>, <270, 11, 29, 18, 15, 1, 0, [0, 1, 1, 1, 1, 0, 0, 0]>, <271, 12, 30, 18, 15, 1, 0, [0, 1, 1, 1, 1, 0, 0, 0]>, <272, 13, 31, 18, 15, 1, 0, [0, 1, 1, 1, 1, 0, 0, 0]>, <273, 14, 32, 18, 15, 1, 0, [0, 1, 1, 1, 1, 0, 0, 0]>, <274, 15, 33, 18, 15, 1, 0, [0, 1, 1, 1, 1, 0, 0, 0]>, <275, 16, 34, 18, 15, 1, 0, [0, 1, 1, 1, 1, 0, 0, 0]>, <276, 17, 35, 18, 15, 1, 0, [0, 1, 1, 1, 1, 0, 0, 0]>, <277, 0, 20, 20, 16, 0, 1, [0, 0, 0, 0, 1, 1, 1, 1]>, <278, 1, 21, 20, 16, 0, 1, [0, 0, 0, 0, 1, 1, 1, 1]>, <279, 2, 22, 20, 16, 0, 1, [0, 0, 0, 0, 1, 1, 1, 1]>, <280, 3, 23, 20, 16, 0, 1, [0, 0, 0, 0, 1, 1, 1, 1]>, <281, 4, 24, 20, 16, 0, 1, [0, 0, 0, 0, 1, 1, 1, 1]>, <282, 5, 25, 20, 16, 0, 1, [0, 0, 0, 0, 1, 1, 1, 1]>, <283, 6, 26, 20, 16, 0, 1, [0, 0, 0, 0, 1, 1, 1, 1]>, <284, 7, 27, 20, 16, 0, 1, [0, 0, 0, 0, 1, 1, 1, 1]>, <285, 8, 28, 20, 16, 0, 1, [0, 0, 0, 0, 1, 1, 1, 1]>, <286, 9, 29, 20, 16, 0, 1, [0, 0, 0, 0, 1, 1, 1, 1]>, <287, 10, 30, 20, 16, 0, 1, [0, 0, 0, 0, 1, 1, 1, 1]>, <288, 11, 31, 20, 16, 0, 1, [0, 0, 0, 0, 1, 1, 1, 1]>, <289, 12, 32, 20, 16, 0, 1, [0, 0, 0, 0, 1, 1, 1, 1]>, <290, 13, 33, 20, 16, 0, 1, [0, 0, 0, 0, 1, 1, 1, 1]>, <291, 14, 34, 20, 16, 0, 1, [0, 0, 0, 0, 1, 1, 1, 1]>, <292, 15, 35, 20, 16, 0, 1, [0, 0, 0, 0, 1, 1, 1, 1]>, <293, 0, 19, 19, 17, 0, 0, [0, 1, 1, 1, 1, 0, 0, 0]>, <294, 1, 20, 19, 17, 0, 0, [0, 1, 1, 1, 1, 0, 0, 0]>, <295, 2, 21, 19, 17, 0, 0, [0, 1, 1, 1, 1, 0, 0, 0]>, <296, 3, 22, 19, 17, 0, 0, [0, 1, 1, 1, 1, 0, 0, 0]>, <297, 4, 23, 19, 17, 0, 0, [0, 1, 1, 1, 1, 0, 0, 0]>, <298, 5, 24, 19, 17, 0, 0, [0, 1, 1, 1, 1, 0, 0, 0]>, <299, 6, 25, 19, 17, 0, 0, [0, 1, 1, 1, 1, 0, 0, 0]>, <300, 7, 26, 19, 17, 0, 0, [0, 1, 1, 1, 1, 0, 0, 0]>, <301, 8, 27, 19, 17, 0, 0, [0, 1, 1, 1, 1, 0, 0, 0]>, <302, 9, 28, 19, 17, 0, 0, [0, 1, 1, 1, 1, 0, 0, 0]>, <303, 10, 29, 19, 17, 0, 0, [0, 1, 1, 1, 1, 0, 0, 0]>, <304, 11, 30, 19, 17, 0, 0, [0, 1, 1, 1, 1, 0, 0, 0]>, <305, 12, 31, 19, 17, 0, 0, [0, 1, 1, 1, 1, 0, 0, 0]>, <306, 13, 32, 19, 17, 0, 0, [0, 1, 1, 1, 1, 0, 0, 0]>, <307, 14, 33, 19, 17, 0, 0, [0, 1, 1, 1, 1, 0, 0, 0]>, <308, 15, 34, 19, 17, 0, 0, [0, 1, 1, 1, 1, 0, 0, 0]>, <309, 16, 35, 19, 17, 0, 0, [0, 1, 1, 1, 1, 0, 0, 0]>, <310, 0, 21, 21, 18, 0, 1, [1, 1, 1, 0, 0, 0, 0, 1]>, <311, 1, 22, 21, 18, 0, 1, [1, 1, 1, 0, 0, 0, 0, 1]>, <312, 2, 23, 21, 18, 0, 1, [1, 1, 1, 0, 0, 0, 0, 1]>, <313, 3, 24, 21, 18, 0, 1, [1, 1, 1, 0, 0, 0, 0, 1]>, <314, 4, 25, 21, 18, 0, 1, [1, 1, 1, 0, 0, 0, 0, 1]>, <315, 5, 26, 21, 18, 0, 1, [1, 1, 1, 0, 0, 0, 0, 1]>, <316, 6, 27, 21, 18, 0, 1, [1, 1, 1, 0, 0, 0, 0, 1]>, <317, 7, 28, 21, 18, 0, 1, [1, 1, 1, 0, 0, 0, 0, 1]>, <318, 8, 29, 21, 18, 0, 1, [1, 1, 1, 0, 0, 0, 0, 1]>, <319, 9, 30, 21, 18, 0, 1, [1, 1, 1, 0, 0, 0, 0, 1]>, <320, 10, 31, 21, 18, 0, 1, [1, 1, 1, 0, 0, 0, 0, 1]>, <321, 11, 32, 21, 18, 0, 1, [1, 1, 1, 0, 0, 0, 0, 1]>, <322, 12, 33, 21, 18, 0, 1, [1, 1, 1, 0, 0, 0, 0, 1]>, <323, 13, 34, 21, 18, 0, 1, [1, 1, 1, 0, 0, 0, 0, 1]>, <324, 14, 35, 21, 18, 0, 1, [1, 1, 1, 0, 0, 0, 0, 1]>, <325, 0, 18, 18, 19, 0, 0, [1, 1, 0, 0, 0, 0, 1, 1]>, <326, 1, 19, 18, 19, 0, 0, [1, 1, 0, 0, 0, 0, 1, 1]>, <327, 2, 20, 18, 19, 0, 0, [1, 1, 0, 0, 0, 0, 1, 1]>, <328, 3, 21, 18, 19, 0, 0, [1, 1, 0, 0, 0, 0, 1, 1]>, <329, 4, 22, 18, 19, 0, 0, [1, 1, 0, 0, 0, 0, 1, 1]>, <330, 5, 23, 18, 19, 0, 0, [1, 1, 0, 0, 0, 0, 1, 1]>, <331, 6, 24, 18, 19, 0, 0, [1, 1, 0, 0, 0, 0, 1, 1]>, <332, 8, 26, 18, 19, 0, 0, [1, 1, 0, 0, 0, 0, 1, 1]>, <333, 9, 27, 18, 19, 0, 0, [1, 1, 0, 0, 0, 0, 1, 1]>, <334, 10, 28, 18, 19, 0, 0, [1, 1, 0, 0, 0, 0, 1, 1]>, <335, 11, 29, 18, 19, 0, 0, [1, 1, 0, 0, 0, 0, 1, 1]>, <336, 12, 30, 18, 19, 0, 0, [1, 1, 0, 0, 0, 0, 1, 1]>, <337, 13, 31, 18, 19, 0, 0, [1, 1, 0, 0, 0, 0, 1, 1]>, <338, 14, 32, 18, 19, 0, 0, [1, 1, 0, 0, 0, 0, 1, 1]>, <339, 15, 33, 18, 19, 0, 0, [1, 1, 0, 0, 0, 0, 1, 1]>, <340, 16, 34, 18, 19, 0, 0, [1, 1, 0, 0, 0, 0, 1, 1]>, <341, 17, 35, 18, 19, 0, 0, [1, 1, 0, 0, 0, 0, 1, 1]>, <342, 0, 17, 17, 20, 0, 0, [0, 1, 1, 1, 1, 0, 0, 0]>, <343, 1, 18, 17, 20, 0, 0, [0, 1, 1, 1, 1, 0, 0, 0]>, <344, 2, 19, 17, 20, 0, 0, [0, 1, 1, 1, 1, 0, 0, 0]>, <345, 3, 20, 17, 20, 0, 0, [0, 1, 1, 1, 1, 0, 0, 0]>, <346, 4, 21, 17, 20, 0, 0, [0, 1, 1, 1, 1, 0, 0, 0]>, <347, 5, 22, 17, 20, 0, 0, [0, 1, 1, 1, 1, 0, 0, 0]>, <348, 6, 23, 17, 20, 0, 0, [0, 1, 1, 1, 1, 0, 0, 0]>, <349, 9, 26, 17, 20, 0, 0, [0, 1, 1, 1, 1, 0, 0, 0]>, <350, 10, 27, 17, 20, 0, 0, [0, 1, 1, 1, 1, 0, 0, 0]>, <351, 11, 28, 17, 20, 0, 0, [0, 1, 1, 1, 1, 0, 0, 0]>, <352, 12, 29, 17, 20, 0, 0, [0, 1, 1, 1, 1, 0, 0, 0]>, <353, 13, 30, 17, 20, 0, 0, [0, 1, 1, 1, 1, 0, 0, 0]>, <354, 14, 31, 17, 20, 0, 0, [0, 1, 1, 1, 1, 0, 0, 0]>, <355, 15, 32, 17, 20, 0, 0, [0, 1, 1, 1, 1, 0, 0, 0]>, <356, 16, 33, 17, 20, 0, 0, [0, 1, 1, 1, 1, 0, 0, 0]>, <357, 17, 34, 17, 20, 0, 0, [0, 1, 1, 1, 1, 0, 0, 0]>, <358, 18, 35, 17, 20, 0, 0, [0, 1, 1, 1, 1, 0, 0, 0]>, <359, 0, 21, 21, 21, 0, 0, [0, 0, 0, 0, 1, 1, 1, 1]>, <360, 1, 22, 21, 21, 0, 0, [0, 0, 0, 0, 1, 1, 1, 1]>, <361, 2, 23, 21, 21, 0, 0, [0, 0, 0, 0, 1, 1, 1, 1]>, <362, 3, 24, 21, 21, 0, 0, [0, 0, 0, 0, 1, 1, 1, 1]>, <363, 4, 25, 21, 21, 0, 0, [0, 0, 0, 0, 1, 1, 1, 1]>, <364, 5, 26, 21, 21, 0, 0, [0, 0, 0, 0, 1, 1, 1, 1]>, <365, 6, 27, 21, 21, 0, 0, [0, 0, 0, 0, 1, 1, 1, 1]>, <366, 7, 28, 21, 21, 0, 0, [0, 0, 0, 0, 1, 1, 1, 1]>, <367, 8, 29, 21, 21, 0, 0, [0, 0, 0, 0, 1, 1, 1, 1]>, <368, 9, 30, 21, 21, 0, 0, [0, 0, 0, 0, 1, 1, 1, 1]>, <369, 10, 31, 21, 21, 0, 0, [0, 0, 0, 0, 1, 1, 1, 1]>, <370, 11, 32, 21, 21, 0, 0, [0, 0, 0, 0, 1, 1, 1, 1]>, <371, 12, 33, 21, 21, 0, 0, [0, 0, 0, 0, 1, 1, 1, 1]>, <372, 13, 34, 21, 21, 0, 0, [0, 0, 0, 0, 1, 1, 1, 1]>, <373, 14, 35, 21, 21, 0, 0, [0, 0, 0, 0, 1, 1, 1, 1]>};
